NAME: rue_25_7
TYPE: TSP
DIMENSION: 25
EDGE_WEIGHT_TYPE: EUC_2D
NODE_COORD_SECTION
1 79 99
2 87 16
3 25 11
4 61 64
5 60 12
6 1 94
7 53 36
8 86 79
9 85 88
10 73 35
11 97 81
12 24 42
13 53 35
14 98 84
15 85 14
16 2 82
17 17 7
18 80 81
19 42 9
20 78 96
21 91 86
22 57 37
23 22 86
24 48 24
25 61 75
